c File: flat50_3_0.col
c
c SOURCE: Joseph Culberson (joe@cs.ualberta.ca)
c DESCRIPTION: Quasi-random coloring problem
c              generated with flatness = 0
c                             probability = 0.139
c                             known coloring = 3
c                             random seed = 1146
c              Creation Date:  Tue Jun  9 12:02:16 1998
c Maximum degree = 8 Minimum degree = 1
c p edge 50 115
c cnf created by edge2cnf
p cnf 150 545
-1 -2 0
-1 -3 0
-2 -3 0
1 2 3 0
-4 -5 0
-4 -6 0
-5 -6 0
4 5 6 0
-7 -8 0
-7 -9 0
-8 -9 0
7 8 9 0
-10 -11 0
-10 -12 0
-11 -12 0
10 11 12 0
-13 -14 0
-13 -15 0
-14 -15 0
13 14 15 0
-16 -17 0
-16 -18 0
-17 -18 0
16 17 18 0
-19 -20 0
-19 -21 0
-20 -21 0
19 20 21 0
-22 -23 0
-22 -24 0
-23 -24 0
22 23 24 0
-25 -26 0
-25 -27 0
-26 -27 0
25 26 27 0
-28 -29 0
-28 -30 0
-29 -30 0
28 29 30 0
-31 -32 0
-31 -33 0
-32 -33 0
31 32 33 0
-34 -35 0
-34 -36 0
-35 -36 0
34 35 36 0
-37 -38 0
-37 -39 0
-38 -39 0
37 38 39 0
-40 -41 0
-40 -42 0
-41 -42 0
40 41 42 0
-43 -44 0
-43 -45 0
-44 -45 0
43 44 45 0
-46 -47 0
-46 -48 0
-47 -48 0
46 47 48 0
-49 -50 0
-49 -51 0
-50 -51 0
49 50 51 0
-52 -53 0
-52 -54 0
-53 -54 0
52 53 54 0
-55 -56 0
-55 -57 0
-56 -57 0
55 56 57 0
-58 -59 0
-58 -60 0
-59 -60 0
58 59 60 0
-61 -62 0
-61 -63 0
-62 -63 0
61 62 63 0
-64 -65 0
-64 -66 0
-65 -66 0
64 65 66 0
-67 -68 0
-67 -69 0
-68 -69 0
67 68 69 0
-70 -71 0
-70 -72 0
-71 -72 0
70 71 72 0
-73 -74 0
-73 -75 0
-74 -75 0
73 74 75 0
-76 -77 0
-76 -78 0
-77 -78 0
76 77 78 0
-79 -80 0
-79 -81 0
-80 -81 0
79 80 81 0
-82 -83 0
-82 -84 0
-83 -84 0
82 83 84 0
-85 -86 0
-85 -87 0
-86 -87 0
85 86 87 0
-88 -89 0
-88 -90 0
-89 -90 0
88 89 90 0
-91 -92 0
-91 -93 0
-92 -93 0
91 92 93 0
-94 -95 0
-94 -96 0
-95 -96 0
94 95 96 0
-97 -98 0
-97 -99 0
-98 -99 0
97 98 99 0
-100 -101 0
-100 -102 0
-101 -102 0
100 101 102 0
-103 -104 0
-103 -105 0
-104 -105 0
103 104 105 0
-106 -107 0
-106 -108 0
-107 -108 0
106 107 108 0
-109 -110 0
-109 -111 0
-110 -111 0
109 110 111 0
-112 -113 0
-112 -114 0
-113 -114 0
112 113 114 0
-115 -116 0
-115 -117 0
-116 -117 0
115 116 117 0
-118 -119 0
-118 -120 0
-119 -120 0
118 119 120 0
-121 -122 0
-121 -123 0
-122 -123 0
121 122 123 0
-124 -125 0
-124 -126 0
-125 -126 0
124 125 126 0
-127 -128 0
-127 -129 0
-128 -129 0
127 128 129 0
-130 -131 0
-130 -132 0
-131 -132 0
130 131 132 0
-133 -134 0
-133 -135 0
-134 -135 0
133 134 135 0
-136 -137 0
-136 -138 0
-137 -138 0
136 137 138 0
-139 -140 0
-139 -141 0
-140 -141 0
139 140 141 0
-142 -143 0
-142 -144 0
-143 -144 0
142 143 144 0
-145 -146 0
-145 -147 0
-146 -147 0
145 146 147 0
-148 -149 0
-148 -150 0
-149 -150 0
148 149 150 0
-67 -1 0
-68 -2 0
-69 -3 0
-82 -1 0
-83 -2 0
-84 -3 0
-94 -1 0
-95 -2 0
-96 -3 0
-103 -1 0
-104 -2 0
-105 -3 0
-64 -4 0
-65 -5 0
-66 -6 0
-67 -4 0
-68 -5 0
-69 -6 0
-94 -4 0
-95 -5 0
-96 -6 0
-112 -4 0
-113 -5 0
-114 -6 0
-121 -4 0
-122 -5 0
-123 -6 0
-124 -4 0
-125 -5 0
-126 -6 0
-55 -7 0
-56 -8 0
-57 -9 0
-58 -7 0
-59 -8 0
-60 -9 0
-70 -7 0
-71 -8 0
-72 -9 0
-91 -7 0
-92 -8 0
-93 -9 0
-136 -7 0
-137 -8 0
-138 -9 0
-64 -10 0
-65 -11 0
-66 -12 0
-100 -10 0
-101 -11 0
-102 -12 0
-139 -10 0
-140 -11 0
-141 -12 0
-58 -13 0
-59 -14 0
-60 -15 0
-76 -13 0
-77 -14 0
-78 -15 0
-100 -13 0
-101 -14 0
-102 -15 0
-142 -13 0
-143 -14 0
-144 -15 0
-145 -13 0
-146 -14 0
-147 -15 0
-73 -16 0
-74 -17 0
-75 -18 0
-85 -16 0
-86 -17 0
-87 -18 0
-109 -16 0
-110 -17 0
-111 -18 0
-118 -16 0
-119 -17 0
-120 -18 0
-121 -16 0
-122 -17 0
-123 -18 0
-130 -16 0
-131 -17 0
-132 -18 0
-61 -19 0
-62 -20 0
-63 -21 0
-121 -19 0
-122 -20 0
-123 -21 0
-139 -19 0
-140 -20 0
-141 -21 0
-82 -22 0
-83 -23 0
-84 -24 0
-106 -22 0
-107 -23 0
-108 -24 0
-112 -22 0
-113 -23 0
-114 -24 0
-61 -25 0
-62 -26 0
-63 -27 0
-64 -25 0
-65 -26 0
-66 -27 0
-76 -25 0
-77 -26 0
-78 -27 0
-109 -25 0
-110 -26 0
-111 -27 0
-136 -25 0
-137 -26 0
-138 -27 0
-70 -28 0
-71 -29 0
-72 -30 0
-79 -28 0
-80 -29 0
-81 -30 0
-82 -28 0
-83 -29 0
-84 -30 0
-91 -28 0
-92 -29 0
-93 -30 0
-106 -28 0
-107 -29 0
-108 -30 0
-115 -28 0
-116 -29 0
-117 -30 0
-133 -28 0
-134 -29 0
-135 -30 0
-58 -31 0
-59 -32 0
-60 -33 0
-97 -34 0
-98 -35 0
-99 -36 0
-103 -34 0
-104 -35 0
-105 -36 0
-112 -34 0
-113 -35 0
-114 -36 0
-127 -34 0
-128 -35 0
-129 -36 0
-130 -34 0
-131 -35 0
-132 -36 0
-64 -37 0
-65 -38 0
-66 -39 0
-73 -37 0
-74 -38 0
-75 -39 0
-94 -37 0
-95 -38 0
-96 -39 0
-100 -37 0
-101 -38 0
-102 -39 0
-109 -37 0
-110 -38 0
-111 -39 0
-115 -37 0
-116 -38 0
-117 -39 0
-58 -40 0
-59 -41 0
-60 -42 0
-76 -40 0
-77 -41 0
-78 -42 0
-79 -40 0
-80 -41 0
-81 -42 0
-94 -40 0
-95 -41 0
-96 -42 0
-112 -40 0
-113 -41 0
-114 -42 0
-115 -40 0
-116 -41 0
-117 -42 0
-70 -43 0
-71 -44 0
-72 -45 0
-85 -43 0
-86 -44 0
-87 -45 0
-103 -43 0
-104 -44 0
-105 -45 0
-106 -43 0
-107 -44 0
-108 -45 0
-136 -43 0
-137 -44 0
-138 -45 0
-145 -43 0
-146 -44 0
-147 -45 0
-76 -46 0
-77 -47 0
-78 -48 0
-106 -46 0
-107 -47 0
-108 -48 0
-124 -46 0
-125 -47 0
-126 -48 0
-79 -49 0
-80 -50 0
-81 -51 0
-127 -49 0
-128 -50 0
-129 -51 0
-139 -49 0
-140 -50 0
-141 -51 0
-142 -49 0
-143 -50 0
-144 -51 0
-112 -52 0
-113 -53 0
-114 -54 0
-115 -52 0
-116 -53 0
-117 -54 0
-136 -52 0
-137 -53 0
-138 -54 0
-142 -52 0
-143 -53 0
-144 -54 0
-121 -55 0
-122 -56 0
-123 -57 0
-139 -55 0
-140 -56 0
-141 -57 0
-112 -58 0
-113 -59 0
-114 -60 0
-148 -58 0
-149 -59 0
-150 -60 0
-106 -61 0
-107 -62 0
-108 -63 0
-115 -61 0
-116 -62 0
-117 -63 0
-121 -61 0
-122 -62 0
-123 -63 0
-148 -61 0
-149 -62 0
-150 -63 0
-106 -64 0
-107 -65 0
-108 -66 0
-109 -64 0
-110 -65 0
-111 -66 0
-133 -64 0
-134 -65 0
-135 -66 0
-145 -64 0
-146 -65 0
-147 -66 0
-115 -70 0
-116 -71 0
-117 -72 0
-124 -70 0
-125 -71 0
-126 -72 0
-118 -73 0
-119 -74 0
-120 -75 0
-124 -73 0
-125 -74 0
-126 -75 0
-145 -73 0
-146 -74 0
-147 -75 0
-115 -79 0
-116 -80 0
-117 -81 0
-121 -79 0
-122 -80 0
-123 -81 0
-139 -82 0
-140 -83 0
-141 -84 0
-142 -82 0
-143 -83 0
-144 -84 0
-148 -82 0
-149 -83 0
-150 -84 0
-103 -85 0
-104 -86 0
-105 -87 0
-136 -85 0
-137 -86 0
-138 -87 0
-148 -85 0
-149 -86 0
-150 -87 0
-145 -88 0
-146 -89 0
-147 -90 0
-103 -91 0
-104 -92 0
-105 -93 0
-106 -91 0
-107 -92 0
-108 -93 0
-133 -91 0
-134 -92 0
-135 -93 0
-109 -94 0
-110 -95 0
-111 -96 0
-106 -97 0
-107 -98 0
-108 -99 0
-109 -97 0
-110 -98 0
-111 -99 0
-109 -100 0
-110 -101 0
-111 -102 0
